53152 100 1100 27 20 27 9 22 28 21 16 12 28 15 27 12 14 12 10 15 22 5 22 10 5 22 24 5 22 11 24 22 12 26 6 19 17 14 20 21 20 10 5 20 10 11 13 7 15 15 13 16 9 19 21 14 20 9 28 6 20 12 24 18 27 10 29 20 29 10 24 23 15 28 13 10 14 26 28 12 19 29 16 15 21 28 16 14 28 19 23 28 19 9 10 8 29 22 9 27 20 20 9 62 67 64 61 68 69 66 61 60 69 63 63 63 62 68 67 65 68 66 62 64 60 65 68 61 63 64 68 63 63 66 61 61 65 61 61 68 67 60 61 69 63 60 63 63 61 64 61 69 66 62 66 61 68 65 68 64 68 60 69 69 67 61 66 69 68 63 62 63 62 69 62 67 63 64 68 64 65 68 61 61 64 69 64 63 66 69 60 69 67 65 63 61 68 69 60 63 66 65 61
